#######################################
### Exact MIP solver for the HHCRSP ###
#######################################
-- Instance file: new-instances/HHCRSP_75_15_24_0.8_R_RC.txt
-- Max threads: 4
-- Time limit: 999999 seconds
-- Use initial solution: No
Trivial flow violations prevented generating 19711 variables.
Model exported.
Version identifier: 20.1.0.0 | 2020-11-10 | 9bedb6d68
CPXPARAM_Threads                                 4
CPXPARAM_TimeLimit                               999999
Parallel mode: deterministic, using up to 4 threads for concurrent optimization:
 * Starting dual Simplex on 1 thread...
 * Starting Barrier on 3 threads...
Tried aggregator 1 time.
LP Presolve eliminated 2724 rows and 576 columns.
Reduced LP has 17508 rows, 16913 columns, and 163474 nonzeros.
Presolve time = 0.08 sec. (45.95 ticks)
Symmetry aggregator did 11889 additional substitutions.

Iteration log . . .
Iteration:     1   Dual objective     =             0.000000
Iteration:   352   Dual objective     =           155.833333

Dual crossover.
  Dual:  Fixing 174 variables.
      173 DMoves:  Infeasibility  4.94394448e-14  Objective  1.55848880e+02
        0 DMoves:  Infeasibility  3.45624563e-14  Objective  1.55848880e+02
  Dual:  Pushed 11, exchanged 163.
  Primal:  Fixing 48 variables.
       47 PMoves:  Infeasibility  0.00000000e+00  Objective  1.55848880e+02
        0 PMoves:  Infeasibility  0.00000000e+00  Objective  1.55848880e+02
  Primal:  Pushed 18, exchanged 30.

Dual simplex solved model.


Solution status from MIP model:
-- Processing time: 0.17 sec.
-- Memory used: 81.8936 MB
-- Best bound: inf
-- Obj value: 155.849
-- Gap: inf%
-- Total distance: 467.547
-- Total tardiness: 0
-- Largest tardiness: 0
